781 657
325 453 181 317 221 495 308 228 186 447 433 401 353 255 317 245 279 376 351 247 391 163 330 271 479 384 496 181 471 173 177 262 408 312 187 450 503 280 330 346 391 171 238 206 400 417 202 493 305 166 401 180 461 439 262
262 245 349 299 325 343 372 377 306 194 223 158 195 206 311 299 164 401 229 426 382 388 145 228 361 341 389 369 348 355 290 334 372 297 228 305 182 344 260 320 281 161 295 152 184 399 199 225 291 175 264 143 355 338 412
531 439 597 993 159 506 328 307 736 753 296 222 358 676 915 541 513 894 691 724 188 358 218 868 165 192 927 652 407 197 261 906 605 261 215 274 387 738 195 956 658 608 255 880 562 353 888 446 556 977 742 556 795 736 729